! B3LYP def2-SVP RIJCOSX TightSCF Opt NumFreq NoSym CPCM(THF) NoAutoStart

%pal
   nprocs 24
   nprocs_group 24
end

%maxcore 1000

%geom
   MaxIter 300
end

* xyz 0 1
C          1.16240        0.34059        0.01600
C          0.69383       -0.91722       -0.00694
C         -0.74720       -0.88831       -0.00640
C         -1.16632        0.38480        0.01684
C          0.01606        1.30882        0.03369
H          2.20392        0.62372        0.02115
H          1.28423       -1.82063       -0.02344
H         -1.37224       -1.76817       -0.02244
H         -2.19608        0.70812        0.02276
H          0.02801        1.92055        0.94035
H          0.02799        1.95322       -0.85004
*
