! B3LYP def2-SVP RIJCOSX TightSCF Opt NumFreq NoSym CPCM(THF)

%pal
   nprocs 24
   nprocs_group 24
end

%maxcore 1000

%geom
   MaxIter 300
end

* xyz 0 1
C          1.07557        0.50672       -0.44413
N          2.50705        0.42833       -0.60023
C          3.21150       -0.57760       -1.20390
C          2.46771       -1.51532       -2.14457
C          2.06222       -0.85553       -3.48888
C          1.79523       -2.10180       -4.34285
C          3.29876       -0.35544       -4.20301
C          3.99184       -1.43388       -4.59775
C          3.21270       -2.65020       -4.16074
C          3.30456       -2.74658       -2.62244
O          4.41153       -0.67795       -0.95455
H          0.83171        1.45562        0.03928
H          0.74233       -0.32471        0.18249
H          0.58005        0.45283       -1.41388
H          3.08202        0.95465        0.04809
H          1.58084       -1.89588       -1.62187
H          1.23780       -0.14355       -3.46233
H          1.54571       -1.87161       -5.38670
H          1.01975       -2.75517       -3.92699
H          3.60376        0.67590       -4.29847
H          4.96023       -1.43927       -5.07487
H          3.43495       -3.56373       -4.71284
H          4.34047       -2.75046       -2.26901
H          2.82561       -3.66953       -2.27401
*
