! B3LYP def2-SVP OPT FREQ

%maxcore 4000
%pal
  nprocs 24
end

* xyz 0 1
  C      -0.44233041     -1.09417314      0.01944847
  C       0.83257111     -0.90508983      0.38816735
  C       1.15596195      0.49372244      0.28814259
  C       0.08087916      1.16894647     -0.14237974
  C      -1.06044544      0.21937410     -0.36066276
  H      -0.95657579     -2.04281802     -0.00428159
  H       1.52471677     -1.66732548      0.71226948
  H       2.12127972      0.91307900      0.52775196
  H       0.03219052      2.23404542     -0.31010629
  H      -1.90715672      0.46151206      0.28804980
  H      -1.38109085      0.21872698     -1.40639928
*
