! B3LYP def2-SVP OPT FREQ

%maxcore 4000
%pal
  nprocs 24
end

* xyz 0 1
  O       0.00754405      0.39774343      0.00000000
  H      -0.76710314     -0.18439316      0.00000000
  H       0.75955908     -0.21335027      0.00000000
*
