! B3LYP def2-SVP RIJCOSX TightSCF Opt NumFreq NoSym CPCM(THF)

%pal
   nprocs 24
   nprocs_group 24
end

%maxcore 1000

%geom
   MaxIter 300
end

* xyz 0 1
C          3.28642        0.27745        1.74054
C          4.38469       -0.64586        1.32608
C          5.10170       -0.14919        0.31156
C          4.61132        1.18577       -0.15730
C          3.42254        1.48894        0.75945
C          2.01114        1.55876        0.11602
C          1.73993        0.32898       -0.72032
C          1.62298       -0.70845        0.12230
C          1.81626       -0.17254        1.52457
C          1.14039        1.19390        1.32966
H          3.43856        0.61188        2.77403
H          4.57117       -1.60023        1.79896
H          5.94297       -0.65569       -0.14236
H          4.34002        1.16431       -1.21668
H          5.39920        1.93501       -0.02455
H          3.60675        2.41037        1.32801
H          1.75575        2.50416       -0.36425
H          1.71303        0.28936       -1.79857
H          1.48712       -1.74531       -0.14425
H          1.38637       -0.79050        2.31400
H          1.27440        1.87113        2.18111
H          0.06991        1.12444        1.09617
*
