! B3LYP def2-SVP RIJCOSX TightSCF Opt NumFreq NoSym CPCM(THF)

%pal
   nprocs 24
   nprocs_group 24
end

%maxcore 1000

%geom
   MaxIter 300
end

* xyz 0 1
C          1.45689        0.31116        0.57238
N          2.68384       -0.05099       -0.09380
C          2.84952       -0.69686       -1.28190
C          1.62877       -1.10038       -2.02419
C          1.73152       -1.73826       -3.19760
O          3.97919       -0.92586       -1.70316
H          1.70502        0.81931        1.50715
H          0.87856       -0.59176        0.78461
H          0.87856        0.98025       -0.06995
H          3.56278        0.18970        0.34897
H          0.65601       -0.87605       -1.61152
H          2.69944       -1.97460       -3.63235
H          0.84716       -2.03790       -3.74879
*
