! XTB2 GOAT

%maxcore 1000 #amount of ram the user selected 

%pal
  nprocs 24 #number of cores the user selected 
end

%goat
  NWorkers 24  #number of cores the user selected 
end

* xyz 0 1
C    0.000000    0.000000    0.000000
H    0.000000    0.000000    1.089000
H    1.026719    0.000000   -0.363000
H   -0.513360    0.889165   -0.363000
H   -0.513360   -0.889165   -0.363000
*